param set_len = 38;
param target_sum = 10298325751;
param values := [1] 144284204 [2] 162470695 [3] 1032467629 [4] 847200992 [5] 717422842 [6] 830659884 [7] 462128924 [8] 286320833 [9] 826090778 [10] 324733303 [11] 409152441 [12] 716822126 [13] 113493670 [14] 537057369 [15] 318239134 [16] 25797172 [17] 510653380 [18] 906943618 [19] 503189793 [20] 632918637 [21] 452247256 [22] 160403032 [23] 133976101 [24] 657882831 [25] 943706257 [26] 948214313 [27] 134896343 [28] 410649660 [29] 531357976 [30] 816653063 [31] 1064845911 [32] 1031707641 [33] 650154642 [34] 62720541 [35] 783058938 [36] 327786046 [37] 534468146 [38] 885355637 ;
